3 16 1 10
15 11 10 19 12 5 2 19 2 6 4 4 4 20 3 14 
1.03 6.02 4.43 0.93 1.5 0.69 7.62 5.32 5.45 2.64 4.33 2.89 5.66 4.21 2.11 3.4 
4 4 4 4 4 4 4 4 4 4 4 4 4 4 4 4 
7.41 6.56 6.71 4.57 5.81 7.05 3.84 6.4 6.74 2.8 5.96 6.18 5.28 7.17 7.31 6.29 
1 1 1 1 1 1 1 1 1 1 1 1 1 1 1 1 
1 1 1 1 1 1 1 1 1 1 1 1 1 1 1 1 
1 1 1 1 1 1 1 1 1 1 1 1 1 1 1 1 
0.01 0.01 0.01 0.01 0.01 0.01 0.01 0.01 0.01 0.01 0.01 0.01 0.01 0.01 0.01 0.01 
0.02 0.02 0.02 0.02 0.02 0.02 0.02 0.02 0.02 0.02 0.02 0.02 0.02 0.02 0.02 0.02 
1 1 1 1 1 1 1 1 1 1 1 1 1 1 1 1 
